(set-option :print-success false)
(set-info :smt-lib-version 2.6)
(set-option :auto_config false)
(set-option :type_check true)
(set-option :smt.case_split 3)
(set-option :smt.qi.eager_threshold 100)
(set-option :smt.delay_units true)
(set-option :smt.arith.solver 2)
(set-option :smt.mbqi false)
(set-option :model.compact false)
(set-option :model.v2 true)
(set-option :pp.bv_literals false)
(set-option :smt.arith.solver 2)
; done setting options

(declare-sort |T@U| 0)
(declare-sort |T@T| 0)
(declare-fun DateTime () T@U)
(declare-fun my_const () T@U)
(declare-fun $IsBox (T@U T@U) Bool)
(declare-fun $IsAllocBox (T@U T@U T@U) Bool)
(declare-fun alloc () T@U)
(declare-fun $IsAlloc (T@T T@U T@U T@U) Bool)
(declare-fun $Is (T@T T@U T@U) Bool)


(declare-fun end () T@U)
(declare-fun f3 () T@U)
(declare-fun to_true (T@U) Bool)
(declare-fun datetime_to_str (T@U) T@U)
(assert ($IsBox end DateTime))
(assert ($IsBox f3 DateTime))
(assert (= my_const (datetime_to_str end)))

(declare-fun ControlFlow (Int Int) Int)
(declare-fun |i#0@0| () T@U)
(declare-fun $Heap () T@U)
(declare-fun $_ModifiesFrame@0 () T@U)
(declare-fun null () T@U)
(declare-fun $IsHeapAnchor (T@U) Bool)
(assert (not (=> (forall ((i T@U) ) (!  (=> ($IsBox i DateTime) (= (= my_const (datetime_to_str i)) (= f3 i)))
 :pattern ( (datetime_to_str i))
)) (= f3 end))))
(assert (not true))
(check-sat)
(get-info :rlimit)
; Valid
